AES/1_4_4/ssaes_r1-20_c4_rw1_e4_f0_k1-20_aes_canon_box_aes_mc_bidirectional/ExperimentMinisat_r19_k3cnf_2011-11-18-115632/Result
WARNING: for repeatability, setting FPU to use double precision
============================[ Problem Statistics ]=============================
|                                                                             |
|  Number of variables:          2936                                         |
|  Number of clauses:           17487                                         |
|  Parse time:                   0.01 s                                       |
|  Eliminated clauses:           0.03 Mb                                      |
|  Simplification time:          0.02 s                                       |
|                                                                             |
=============================[ Search Statistics ]==============================
| Conflicts  |          ORIGINAL         |          LEARNT          | Progress |
|            |    Vars  Clauses Literals |    Limit  Clauses Lit/Cl |          |
================================================================================
|        100 |    2413    15985    49633 |     5861      100     29 |  3.679 % |
|        250 |    2413    15985    49633 |     6447      250     28 |  3.679 % |
|        475 |    2413    15985    49633 |     7092      475     30 |  3.678 % |
|        812 |    2413    15985    49633 |     7801      812     31 |  3.679 % |
|       1318 |    2413    15985    49633 |     8581     1318     31 |  3.679 % |
|       2077 |    2413    15985    49633 |     9439     2077     30 |  3.678 % |
|       3216 |    2413    15985    49633 |    10383     3216     28 |  3.678 % |
|       4924 |    2413    15985    49633 |    11421     4924     28 |  3.679 % |
|       7486 |    2413    15985    49633 |    12563     7486     27 |  3.678 % |
===============================================================================
restarts              : 41
conflicts             : 9500           (6118 /sec)
decisions             : 11680          (0.00 % random) (7522 /sec)
propagations          : 10559774       (6800635 /sec)
conflict literals     : 263042         (56.09 % deleted)
Memory used           : 9.00 MB
CPU time              : 1.55276 s

SATISFIABLE
